60 1000
1 351
2 258
3 391
4 359
5 259
6 382
7 376
8 308
9 316
10 445
11 275
12 280
13 426
14 276
15 298
16 468
17 259
18 273
19 453
20 258
21 289
22 443
23 253
24 304
25 380
26 261
27 359
28 377
29 304
30 319
31 483
32 254
33 263
34 451
35 261
36 288
37 373
38 263
39 364
40 417
41 276
42 307
43 363
44 294
45 343
46 442
47 254
48 304
49 412
50 256
51 332
52 369
53 262
54 369
55 429
56 252
57 319
58 397
59 266
60 337
